c Generated map
c Size: 13 * 13, weights in range: 1 to 10, walls: True, with ratio 0.4
c dim 2 of 3
c
p sp 169 113
c graph contains 169 nodes and 113 arcs
c
a 1 2 3
a 2 1 3
a 2 15 8
a 15 2 8
a 2 3 10
a 3 2 10
a 3 4 1
a 4 3 1
a 4 17 1
a 17 4 1
a 6 19 5
a 19 6 5
a 8 21 9
a 21 8 9
a 8 9 8
a 9 8 8
a 9 22 7
a 22 9 7
a 11 24 2
a 24 11 2
a 11 12 9
a 12 11 9
a 12 13 10
a 13 12 10
a 15 28 7
a 28 15 7
a 17 30 9
a 30 17 9
a 19 32 6
a 32 19 6
a 21 22 5
a 22 21 5
a 22 23 2
a 23 22 2
a 23 36 7
a 36 23 7
a 23 24 5
a 24 23 5
a 27 40 7
a 40 27 7
a 27 28 5
a 28 27 5
a 28 41 4
a 41 28 4
a 30 43 1
a 43 30 1
a 30 31 3
a 31 30 3
a 31 44 2
a 44 31 2
a 31 32 3
a 32 31 3
a 32 33 1
a 33 32 1
a 33 46 7
a 46 33 7
a 38 51 3
a 51 38 3
a 40 53 8
a 53 40 8
a 40 41 8
a 41 40 8
a 41 54 10
a 54 41 10
a 43 44 8
a 44 43 8
a 44 57 5
a 57 44 5
a 46 59 4
a 59 46 4
a 46 47 10
a 47 46 10
a 47 60 4
a 60 47 4
a 47 48 3
a 48 47 3
a 48 61 3
a 61 48 3
a 51 64 2
a 64 51 2
a 53 66 6
a 66 53 6
a 53 54 10
a 54 53 10
a 54 67 9
a 67 54 9
a 54 55 7
a 55 54 7
a 57 70 10
a 70 57 10
a 57 58 9
a 58 57 9
a 58 71 9
a 71 58 9
a 58 59 8
a 59 58 8
a 59 72 3
a 72 59 3
a 59 60 10
a 60 59 10
a 60 61 5
a 61 60 5
a 61 62 7
a 62 61 7
a 62 75 10
a 75 62 10
a 62 63 8
a 63 62 8
a 63 76 6
a 76 63 6
a 63 64 3
a 64 63 3
a 64 77 1
a 77 64 1
a 64 65 9
a 65 64 9
a 65 78 3
a 78 65 3
a 66 79 4
a 79 66 4
a 66 67 4
a 67 66 4
a 67 80 6
a 80 67 6
a 70 71 7
a 71 70 7
a 71 72 3
a 72 71 3
a 72 85 9
a 85 72 9
a 75 76 6
a 76 75 6
a 76 89 7
a 89 76 7
a 76 77 3
a 77 76 3
a 77 78 9
a 78 77 9
a 79 80 9
a 80 79 9
a 80 81 1
a 81 80 1
a 81 94 5
a 94 81 5
a 89 102 4
a 102 89 4
a 94 107 3
a 107 94 3
a 99 112 4
a 112 99 4
a 101 114 6
a 114 101 6
a 101 102 8
a 102 101 8
a 102 103 3
a 103 102 3
a 103 104 3
a 104 103 3
a 104 117 1
a 117 104 1
a 107 108 3
a 108 107 3
a 108 121 6
a 121 108 6
a 111 124 4
a 124 111 4
a 111 112 8
a 112 111 8
a 112 125 6
a 125 112 6
a 114 127 9
a 127 114 9
a 117 130 2
a 130 117 2
a 119 132 6
a 132 119 6
a 124 125 10
a 125 124 10
a 125 138 3
a 138 125 3
a 125 126 4
a 126 125 4
a 126 139 2
a 139 126 2
a 126 127 1
a 127 126 1
a 129 130 7
a 130 129 7
a 135 148 5
a 148 135 5
a 135 136 5
a 136 135 5
a 136 149 3
a 149 136 3
a 138 151 2
a 151 138 2
a 138 139 6
a 139 138 6
a 139 152 5
a 152 139 5
a 141 154 4
a 154 141 4
a 146 159 7
a 159 146 7
a 148 161 7
a 161 148 7
a 148 149 10
a 149 148 10
a 151 152 7
a 152 151 7
a 152 165 10
a 165 152 10
a 152 153 7
a 153 152 7
a 153 154 7
a 154 153 7
a 154 155 2
a 155 154 2
a 155 168 4
a 168 155 4
a 159 160 9
a 160 159 9
a 160 161 5
a 161 160 5
a 168 169 6
a 169 168 6
